lbl,CUST NO.,READY TIME,XCOORD.,YCOORD.,DEMAND,DUE DATE,SERVICE TIME
8,116,0,93,36,20,1220,90
8,11,0,86,36,20,1224,90
8,73,0,87,39,20,1226,90
8,129,285,88,35,20,358,90
8,6,478,86,37,10,531,90
8,122,568,84,36,10,626,90
8,139,659,84,39,20,720,90
